
Gurobi 7.5.2 (linux64) logging started Sat Jun 23 16:31:08 2018

Changed value of parameter LogFile to result/ilp/simNo_6-n_100-m_40-s_7-minVAF_0.05-cov_2000-k_2-fn_0.25-fp_0.0001-na_0.15.ILP.gurobiSolverLog
   Prev: gurobi.log  Default: 
Changed value of parameter TimeLimit to 86400.0
   Prev: 1e+100  Min: 0.0  Max: 1e+100  Default: 1e+100
Optimize a model with 1265601 rows, 330440 columns and 3489120 nonzeros
Variable types: 0 continuous, 330440 integer (330440 binary)
Coefficient statistics:
  Matrix range     [8e-04, 3e+00]
  Objective range  [1e+00, 3e+01]
  Bounds range     [1e+00, 1e+00]
  RHS range        [8e-02, 2e+00]
Found heuristic solution: objective -9524.847454
Presolve removed 395292 rows and 226477 columns (presolve time = 6s) ...
Presolve removed 395538 rows and 226477 columns (presolve time = 10s) ...
Presolve removed 395538 rows and 226477 columns (presolve time = 15s) ...
Presolve removed 395538 rows and 226477 columns (presolve time = 20s) ...
Presolve removed 395538 rows and 226477 columns (presolve time = 26s) ...
Presolve removed 395538 rows and 226477 columns (presolve time = 30s) ...
Presolve removed 395538 rows and 226477 columns (presolve time = 37s) ...
Presolve removed 395538 rows and 226477 columns
Presolve time: 39.11s
Presolved: 870063 rows, 103963 columns, 2420435 nonzeros
Variable types: 0 continuous, 103963 integer (103963 binary)
Presolved: 103963 rows, 974026 columns, 2524398 nonzeros

Presolve removed 103963 rows and 974026 columns

Root simplex log...

Iteration    Objective       Primal Inf.    Dual Inf.      Time
       0    5.7389712e+01   0.000000e+00   6.818300e+04     49s
    6713   -1.2021670e+02   0.000000e+00   7.032900e+04     50s
   20288   -1.7418136e+02   0.000000e+00   5.549925e+04     55s
   27224   -1.9049055e+02   0.000000e+00   0.000000e+00     58s
   27224   -1.9049055e+02   0.000000e+00   0.000000e+00     60s

Root relaxation: objective -1.904906e+02, 27224 iterations, 17.74 seconds
Total elapsed time = 93.81s
Total elapsed time = 104.74s
Total elapsed time = 111.75s

    Nodes    |    Current Node    |     Objective Bounds      |     Work
 Expl Unexpl |  Obj  Depth IntInf | Incumbent    BestBd   Gap | It/Node Time

     0     0 -190.49055    0 1007 -9524.8475 -190.49055  98.0%     -  118s
H    0     0                    -202.5120662 -190.49055  5.94%     -  137s
     0     0 -191.58082    0 1006 -202.51207 -191.58082  5.40%     -  154s
     0     0 -191.90731    0 1006 -202.51207 -191.90731  5.24%     -  177s
     0     0 -192.45348    0  977 -202.51207 -192.45348  4.97%     -  196s
     0     0 -192.45348    0  980 -202.51207 -192.45348  4.97%     -  211s
     0     0 -192.88676    0 1004 -202.51207 -192.88676  4.75%     -  226s
     0     0 -192.88676    0 1005 -202.51207 -192.88676  4.75%     -  238s
     0     0 -192.96134    0  978 -202.51207 -192.96134  4.72%     -  255s
     0     0 -193.01430    0 1012 -202.51207 -193.01430  4.69%     -  270s
     0     0 -193.03037    0 1064 -202.51207 -193.03037  4.68%     -  278s
     0     0 -193.03742    0 1066 -202.51207 -193.03742  4.68%     -  287s
     0     0 -193.52715    0 1065 -202.51207 -193.52715  4.44%     -  307s
     0     0 -193.52715    0 1065 -202.51207 -193.52715  4.44%     -  321s
     0     0 -194.37712    0 1068 -202.51207 -194.37712  4.02%     -  340s
     0     0 -194.37714    0 1007 -202.51207 -194.37714  4.02%     -  355s
     0     0 -194.59583    0 1061 -202.51207 -194.59583  3.91%     -  374s
     0     0 -194.66463    0 1064 -202.51207 -194.66463  3.88%     -  389s
     0     0 -194.83964    0 1059 -202.51207 -194.83964  3.79%     -  409s
     0     0 -194.84112    0 1062 -202.51207 -194.84112  3.79%     -  423s
     0     0 -195.04824    0 1026 -202.51207 -195.04824  3.69%     -  446s
     0     0 -195.07363    0 1059 -202.51207 -195.07363  3.67%     -  462s
     0     0 -195.09762    0 1004 -202.51207 -195.09762  3.66%     -  470s
     0     0 -195.22236    0 1015 -202.51207 -195.22236  3.60%     -  490s
     0     0 -195.22236    0 1009 -202.51207 -195.22236  3.60%     -  505s
     0     0 -195.30942    0 1067 -202.51207 -195.30942  3.56%     -  523s
     0     0 -195.39377    0 1017 -202.51207 -195.39377  3.52%     -  539s
     0     0 -195.39377    0 1018 -202.51207 -195.39377  3.52%     -  546s
     0     0 -195.81003    0 1017 -202.51207 -195.81003  3.31%     -  565s
     0     0 -195.83640    0 1025 -202.51207 -195.83640  3.30%     -  578s
     0     0 -195.84812    0 1021 -202.51207 -195.84812  3.29%     -  585s
     0     0 -195.85010    0 1023 -202.51207 -195.85010  3.29%     -  593s
     0     0 -195.85901    0 1022 -202.51207 -195.85901  3.29%     -  601s
     0     0 -196.30069    0 1022 -202.51207 -196.30069  3.07%     -  619s
     0     0 -196.32318    0 1020 -202.51207 -196.32318  3.06%     -  634s
     0     0 -196.32775    0 1020 -202.51207 -196.32775  3.05%     -  642s
     0     0 -196.32775    0 1020 -202.51207 -196.32775  3.05%     -  648s
     0     0 -196.80031    0 1076 -202.51207 -196.80031  2.82%     -  668s
     0     0 -196.80031    0 1075 -202.51207 -196.80031  2.82%     -  679s
     0     0 -197.24856    0 1074 -202.51207 -197.24856  2.60%     -  698s
     0     0 -197.25910    0 1073 -202.51207 -197.25910  2.59%     -  712s
     0     0 -197.25910    0 1074 -202.51207 -197.25910  2.59%     -  720s
     0     0 -197.52408    0 1016 -202.51207 -197.52408  2.46%     -  735s
     0     0 -197.59796    0 1072 -202.51207 -197.59796  2.43%     -  747s
     0     0 -197.60244    0 1020 -202.51207 -197.60244  2.42%     -  754s
     0     0 -197.60244    0 1022 -202.51207 -197.60244  2.42%     -  762s
     0     0 -197.78353    0 1075 -202.51207 -197.78353  2.33%     -  781s
     0     0 -197.86870    0 1076 -202.51207 -197.86870  2.29%     -  794s
     0     0 -197.87155    0 1076 -202.51207 -197.87155  2.29%     -  802s
     0     0 -197.87155    0 1075 -202.51207 -197.87155  2.29%     -  810s
     0     0 -198.00101    0 1065 -202.51207 -198.00101  2.23%     -  829s
     0     0 -198.15562    0 1071 -202.51207 -198.15562  2.15%     -  843s
     0     0 -198.19217    0 1066 -202.51207 -198.19217  2.13%     -  853s
     0     0 -198.19217    0 1070 -202.51207 -198.19217  2.13%     -  861s
     0     0 -198.50353    0 1013 -202.51207 -198.50353  1.98%     -  879s
     0     0 -198.50353    0 1010 -202.51207 -198.50353  1.98%     -  892s
     0     0 -198.50353    0 1015 -202.51207 -198.50353  1.98%     -  911s
     0     0 -198.52168    0 1072 -202.51207 -198.52168  1.97%     -  924s
     0     0 -198.52168    0 1075 -202.51207 -198.52168  1.97%     -  932s
     0     0 -198.63241    0 1015 -202.51207 -198.63241  1.92%     -  987s
     0     0 -198.69943    0 1016 -202.51207 -198.69943  1.88%     - 1002s
     0     0 -198.72417    0 1071 -202.51207 -198.72417  1.87%     - 1010s
     0     0 -198.74014    0 1021 -202.51207 -198.74014  1.86%     - 1019s
     0     0 -198.74014    0 1021 -202.51207 -198.74014  1.86%     - 1027s
     0     0 -199.06064    0 1068 -202.51207 -199.06064  1.70%     - 1045s
     0     0 -199.09668    0 1069 -202.51207 -199.09668  1.69%     - 1060s
     0     0 -199.12984    0 1068 -202.51207 -199.12984  1.67%     - 1067s
     0     0 -199.14023    0 1073 -202.51207 -199.14023  1.67%     - 1075s
     0     0 -199.14147    0 1072 -202.51207 -199.14147  1.66%     - 1082s
     0     0 -199.27000    0 1071 -202.51207 -199.27000  1.60%     - 1104s
     0     0 -199.29688    0 1074 -202.51207 -199.29688  1.59%     - 1118s
     0     0 -199.29874    0 1078 -202.51207 -199.29874  1.59%     - 1126s
     0     0 -199.29874    0 1078 -202.51207 -199.29874  1.59%     - 1134s
     0     0 -199.37313    0 1072 -202.51207 -199.37313  1.55%     - 1153s
     0     0 -199.38639    0 1073 -202.51207 -199.38639  1.54%     - 1165s
     0     0 -199.41739    0 1071 -202.51207 -199.41739  1.53%     - 1174s
     0     0 -199.41739    0 1071 -202.51207 -199.41739  1.53%     - 1181s
     0     0 -199.51648    0 1071 -202.51207 -199.51648  1.48%     - 1201s
     0     0 -199.52736    0 1074 -202.51207 -199.52736  1.47%     - 1214s
     0     0 -199.53361    0 1077 -202.51207 -199.53361  1.47%     - 1221s
     0     0 -199.53361    0 1080 -202.51207 -199.53361  1.47%     - 1229s
     0     0 -199.74211    0 1072 -202.51207 -199.74211  1.37%     - 1248s
     0     0 -199.75222    0 1076 -202.51207 -199.75222  1.36%     - 1262s
     0     0 -199.76290    0 1069 -202.51207 -199.76290  1.36%     - 1270s
     0     0 -199.76493    0 1075 -202.51207 -199.76493  1.36%     - 1276s
     0     0 -199.76494    0 1077 -202.51207 -199.76494  1.36%     - 1284s
     0     0 -199.89908    0 1074 -202.51207 -199.89908  1.29%     - 1303s
     0     0 -199.93465    0 1076 -202.51207 -199.93465  1.27%     - 1316s
     0     0 -199.93555    0 1077 -202.51207 -199.93555  1.27%     - 1325s
     0     0 -200.06034    0 1072 -202.51207 -200.06034  1.21%     - 1345s
     0     0 -200.06880    0 1075 -202.51207 -200.06880  1.21%     - 1358s
     0     0 -200.07103    0 1073 -202.51207 -200.07103  1.21%     - 1368s
     0     0 -200.07103    0 1073 -202.51207 -200.07103  1.21%     - 1376s
     0     0 -200.19435    0 1075 -202.51207 -200.19435  1.14%     - 1393s
     0     0 -200.25460    0 1073 -202.51207 -200.25460  1.11%     - 1407s
     0     0 -200.32483    0 1075 -202.51207 -200.32483  1.08%     - 1414s
     0     0 -200.36524    0 1075 -202.51207 -200.36524  1.06%     - 1423s
     0     0 -200.36923    0 1074 -202.51207 -200.36923  1.06%     - 1431s
     0     0 -200.37156    0 1074 -202.51207 -200.37156  1.06%     - 1438s
     0     0 -200.37831    0 1077 -202.51207 -200.37831  1.05%     - 1447s
     0     0 -200.37935    0 1078 -202.51207 -200.37935  1.05%     - 1454s
     0     0 -200.37945    0 1077 -202.51207 -200.37945  1.05%     - 1461s
     0     0 -200.37945    0 1077 -202.51207 -200.37945  1.05%     - 1481s
     0     0 -200.37945    0 1078 -202.51207 -200.37945  1.05%     - 1504s
     0     0 -200.37945    0 1072 -202.51207 -200.37945  1.05%     - 1551s
     0     0 -200.37945    0 1072 -202.51207 -200.37945  1.05%     - 1573s
     0     0 -200.37945    0  374 -202.51207 -200.37945  1.05%     - 1743s
     0     0 -201.20613    0   87 -202.51207 -201.20613  0.64%     - 1756s
     0     0 -201.75027    0   88 -202.51207 -201.75027  0.38%     - 1761s
     0     0 -201.75027    0   86 -202.51207 -201.75027  0.38%     - 1765s
     0     0 -201.75027    0   84 -202.51207 -201.75027  0.38%     - 1769s

Explored 1 nodes (51910 simplex iterations) in 1775.52 seconds
Thread count was 1 (of 80 available processors)

Solution count 4: -202.512 -202.512 -202.512 -9524.85 

Optimal solution found (tolerance 1.00e-04)
Best objective -2.025120661710e+02, best bound -2.025120661710e+02, gap 0.0000%
